
Gurobi 12.0.2 (mac64[arm]) logging started Sat Jun 14 01:51:38 2025

Set parameter LogFile to value "/Users/yurunfeng/Documents/GitHub/LRGTS-store-location/result/gurobi/snyder/150nodes/150-0.95-5.log"
Gurobi Optimizer version 12.0.2 build v12.0.2rc0 (mac64[arm] - Darwin 24.5.0 24F74)

CPU model: Apple M4
Thread count: 10 physical cores, 10 logical processors, using up to 10 threads

Non-default parameters:
TimeLimit  1200

Optimize a model with 3510600 rows, 6795450 columns and 32209486 nonzeros
Model fingerprint: 0xdf304ca8
Variable types: 3397650 continuous, 3397800 integer (3397800 binary)
Coefficient statistics:
  Matrix range     [5e-02, 1e+00]
  Objective range  [9e+01, 8e+06]
  Bounds range     [1e+00, 1e+00]
  RHS range        [1e+00, 5e+00]
Found heuristic solution: objective 6.624322e+07
Presolve removed 22800 rows and 22650 columns (presolve time = 5s)...
Presolve removed 22800 rows and 22650 columns (presolve time = 10s)...
Presolve removed 45300 rows and 22650 columns (presolve time = 15s)...
Presolve removed 45300 rows and 22650 columns (presolve time = 21s)...
Presolve removed 45300 rows and 22650 columns (presolve time = 25s)...
Presolve removed 45300 rows and 22650 columns (presolve time = 30s)...
Presolve removed 45300 rows and 22650 columns (presolve time = 40s)...
Presolve removed 45300 rows and 22650 columns (presolve time = 45s)...
Presolve removed 45300 rows and 22650 columns (presolve time = 50s)...
Presolve removed 45300 rows and 22650 columns (presolve time = 75s)...
Presolve removed 45300 rows and 22650 columns (presolve time = 75s)...
Presolve removed 45300 rows and 22650 columns (presolve time = 81s)...
Presolve removed 45300 rows and 22650 columns (presolve time = 85s)...
Presolve removed 45300 rows and 22650 columns
Presolve time: 85.56s
Presolved: 3465300 rows, 6772800 columns, 28967361 nonzeros
Variable types: 3375000 continuous, 3397800 integer (3397800 binary)
Deterministic concurrent LP optimizer: primal simplex, dual simplex, and barrier
Showing barrier log only...

Root barrier log...

Elapsed ordering time = 12s
Elapsed ordering time = 15s
Ordering time: 16.55s

Barrier performed 0 iterations in 115.61 seconds (258.02 work units)
Barrier solve interrupted - model solved by another algorithm

Concurrent spin time: 8.94s (can be avoided by choosing Method=3)

Solved with dual simplex

Root simplex log...

Iteration    Objective       Primal Inf.    Dual Inf.      Time
   20901    2.2341549e+06   0.000000e+00   0.000000e+00    116s

Root relaxation: objective 2.234155e+06, 20901 iterations, 27.70 seconds (38.55 work units)

    Nodes    |    Current Node    |     Objective Bounds      |     Work
 Expl Unexpl |  Obj  Depth IntInf | Incumbent    BestBd   Gap | It/Node Time

     0     0 2234154.92    0 2925 6.6243e+07 2234154.92  96.6%     -  129s
H    0     0                    2638550.2606 2234154.92  15.3%     -  236s
     0     0 2248894.41    0 4866 2638550.26 2248894.41  14.8%     -  597s
H    0     0                    2638550.2526 2248896.23  14.8%     -  635s
H    0     0                    2444500.6470 2248896.23  8.00%     -  727s
H    0     0                    2444500.6045 2248896.23  8.00%     -  803s
     0     0 2249192.91    0 5084 2444500.60 2249192.91  7.99%     -  969s
     0     0 2249192.95    0 5085 2444500.60 2249192.95  7.99%     -  972s

Cutting planes:
  Gomory: 2
  MIR: 202
  Flow cover: 509
  RLT: 9

Explored 1 nodes (49419 simplex iterations) in 1200.88 seconds (2390.59 work units)
Thread count was 10 (of 10 available processors)

Solution count 4: 2.4445e+06 2.4445e+06 2.63855e+06 6.62432e+07 

Time limit reached
Best objective 2.444500604484e+06, best bound 2.249192949599e+06, gap 7.9897%
